(set-info :source |printed by MathSAT|)
(declare-fun |!{$(in_main#0)<SIZE>}| () Int)
(declare-fun |!{$(in_main#0)<SIZE>}.next| () Int)
(declare-fun |!{$(in_main#0)<i>}| () Int)
(declare-fun |!{$(in_main#0)<i>}.next| () Int)
(declare-fun |!{$(in_main#0)<j>}| () Int)
(declare-fun |!{$(in_main#0)<j>}.next| () Int)
(declare-fun |!{$(in_main#0)<rv>}| () Int)
(declare-fun |!{$(in_main#0)<rv>}.next| () Int)
(declare-fun |!{$(in_main#0)<x>}| () Int)
(declare-fun |!{$(in_main#0)<x>}.next| () Int)
(declare-fun |!{$(in_main#0)<a.1>}| () (Array Int Int))
(declare-fun |!{$(in_main#0)<a.1>}.next| () (Array Int Int))
(declare-fun |!{$(in_main#0)<b.2>}| () (Array Int Int))
(declare-fun |!{$(in_main#0)<b.2>}.next| () (Array Int Int))
(declare-fun |!{$(in_main#0)<c.3>}| () (Array Int Int))
(declare-fun |!{$(in_main#0)<c.3>}.next| () (Array Int Int))
(declare-fun |!{$(in_main#0)<$(in___VERIFIER_nondet_int#0)<h#<__VERIFIER_nondet_int.return>>>}| () Int)
(declare-fun |!{$(in_main#0)<$(in___VERIFIER_nondet_int#1)<h#<__VERIFIER_nondet_int.return>>>}| () Int)
(declare-fun |!{$(in_main#0)<$(in___VERIFIER_nondet_int#2)<h#<__VERIFIER_nondet_int.return>>>}| () Int)
(declare-fun !pc () Int)
(declare-fun !pc.next () Int)
(declare-fun |%{$(in_main#0)<x>}#1| () Int)
(declare-fun |%{$(in_main#0)<a.1>}#1| () (Array Int Int))
(declare-fun |%{$(in_main#0)<b.2>}#1| () (Array Int Int))
(declare-fun |%{$(in_main#0)<c.3>}#1| () (Array Int Int))
(declare-fun |%{$(in_main#0)<rv>}#2| () Int)
(define-fun .def_42 () Int (! !pc :next !pc.next))
(define-fun .def_45 () Bool (! (= .def_42 2) :init true))
(define-fun .def_258 () Bool (= .def_42 31))
(define-fun .def_226 () Bool (= !pc.next 58))
(define-fun .def_261 () Bool (and .def_226 .def_258))
(define-fun .def_10 () Int (! |!{$(in_main#0)<i>}| :next |!{$(in_main#0)<i>}.next|))
(define-fun .def_92 () Bool (= .def_10 |!{$(in_main#0)<i>}.next|))
(define-fun .def_8 () Int (! |!{$(in_main#0)<SIZE>}| :next |!{$(in_main#0)<SIZE>}.next|))
(define-fun .def_90 () Bool (= .def_8 |!{$(in_main#0)<SIZE>}.next|))
(define-fun .def_107 () Bool (and .def_90 .def_92))
(define-fun .def_12 () Int (! |!{$(in_main#0)<j>}| :next |!{$(in_main#0)<j>}.next|))
(define-fun .def_94 () Bool (= .def_12 |!{$(in_main#0)<j>}.next|))
(define-fun .def_108 () Bool (and .def_94 .def_107))
(define-fun .def_14 () Int (! |!{$(in_main#0)<rv>}| :next |!{$(in_main#0)<rv>}.next|))
(define-fun .def_96 () Bool (= .def_14 |!{$(in_main#0)<rv>}.next|))
(define-fun .def_109 () Bool (and .def_96 .def_108))
(define-fun .def_16 () Int (! |!{$(in_main#0)<x>}| :next |!{$(in_main#0)<x>}.next|))
(define-fun .def_98 () Bool (= .def_16 |!{$(in_main#0)<x>}.next|))
(define-fun .def_253 () Bool (and .def_98 .def_109))
(define-fun .def_18 () (Array Int Int) (! |!{$(in_main#0)<a.1>}| :next |!{$(in_main#0)<a.1>}.next|))
(define-fun .def_100 () Bool (= .def_18 |!{$(in_main#0)<a.1>}.next|))
(define-fun .def_254 () Bool (and .def_100 .def_253))
(define-fun .def_20 () (Array Int Int) (! |!{$(in_main#0)<b.2>}| :next |!{$(in_main#0)<b.2>}.next|))
(define-fun .def_102 () Bool (= .def_20 |!{$(in_main#0)<b.2>}.next|))
(define-fun .def_255 () Bool (and .def_102 .def_254))
(define-fun .def_22 () (Array Int Int) (! |!{$(in_main#0)<c.3>}| :next |!{$(in_main#0)<c.3>}.next|))
(define-fun .def_104 () Bool (= .def_22 |!{$(in_main#0)<c.3>}.next|))
(define-fun .def_256 () Bool (and .def_104 .def_255))
(define-fun .def_236 () Bool (<= .def_8 .def_12))
(define-fun .def_257 () Bool (and .def_236 .def_256))
(define-fun .def_262 () Bool (and .def_257 .def_261))
(define-fun .def_76 () Bool (= !pc.next 31))
(define-fun .def_259 () Bool (and .def_76 .def_258))
(define-fun .def_239 () (Array Int Int) (store .def_20 .def_12 |!{$(in_main#0)<$(in___VERIFIER_nondet_int#2)<h#<__VERIFIER_nondet_int.return>>>}|))
(define-fun .def_249 () Bool (= |!{$(in_main#0)<b.2>}.next| .def_239))
(define-fun .def_238 () (Array Int Int) (store .def_18 .def_12 |!{$(in_main#0)<$(in___VERIFIER_nondet_int#1)<h#<__VERIFIER_nondet_int.return>>>}|))
(define-fun .def_247 () Bool (= |!{$(in_main#0)<a.1>}.next| .def_238))
(define-fun .def_241 () Int (* (- 1) |!{$(in_main#0)<j>}.next|))
(define-fun .def_242 () Int (+ .def_12 .def_241))
(define-fun .def_243 () Bool (= .def_242 (- 1)))
(define-fun .def_244 () Bool (and .def_107 .def_243))
(define-fun .def_245 () Bool (and .def_96 .def_244))
(define-fun .def_246 () Bool (and .def_98 .def_245))
(define-fun .def_248 () Bool (and .def_246 .def_247))
(define-fun .def_250 () Bool (and .def_248 .def_249))
(define-fun .def_251 () Bool (and .def_104 .def_250))
(define-fun .def_237 () Bool (not .def_236))
(define-fun .def_252 () Bool (and .def_237 .def_251))
(define-fun .def_260 () Bool (and .def_252 .def_259))
(define-fun .def_263 () Bool (or .def_260 .def_262))
(define-fun .def_225 () Bool (= .def_42 58))
(define-fun .def_134 () Bool (= !pc.next 122))
(define-fun .def_232 () Bool (and .def_134 .def_225))
(define-fun .def_193 () Bool (= .def_14 0))
(define-fun .def_163 () Bool (= |!{$(in_main#0)<x>}.next| 0))
(define-fun .def_164 () Bool (and .def_109 .def_163))
(define-fun .def_165 () Bool (and .def_100 .def_164))
(define-fun .def_166 () Bool (and .def_102 .def_165))
(define-fun .def_167 () Bool (and .def_104 .def_166))
(define-fun .def_222 () Bool (and .def_167 .def_193))
(define-fun .def_185 () Bool (<= .def_8 .def_10))
(define-fun .def_223 () Bool (and .def_185 .def_222))
(define-fun .def_233 () Bool (and .def_223 .def_232))
(define-fun .def_175 () Bool (= !pc.next 89))
(define-fun .def_229 () Bool (and .def_175 .def_225))
(define-fun .def_203 () Bool (not .def_193))
(define-fun .def_220 () Bool (and .def_167 .def_203))
(define-fun .def_221 () Bool (and .def_185 .def_220))
(define-fun .def_230 () Bool (and .def_221 .def_229))
(define-fun .def_227 () Bool (and .def_225 .def_226))
(define-fun .def_187 () Int (select .def_18 .def_10))
(define-fun .def_201 () (Array Int Int) (store .def_22 .def_10 .def_187))
(define-fun .def_216 () Bool (= |!{$(in_main#0)<c.3>}.next| .def_201))
(define-fun .def_211 () Bool (= |!{$(in_main#0)<rv>}.next| |%{$(in_main#0)<rv>}#2|))
(define-fun .def_206 () Int (* (- 1) |!{$(in_main#0)<i>}.next|))
(define-fun .def_207 () Int (+ .def_10 .def_206))
(define-fun .def_208 () Bool (= .def_207 (- 1)))
(define-fun .def_209 () Bool (and .def_90 .def_208))
(define-fun .def_210 () Bool (and .def_94 .def_209))
(define-fun .def_212 () Bool (and .def_210 .def_211))
(define-fun .def_213 () Bool (and .def_98 .def_212))
(define-fun .def_214 () Bool (and .def_100 .def_213))
(define-fun .def_215 () Bool (and .def_102 .def_214))
(define-fun .def_217 () Bool (and .def_215 .def_216))
(define-fun .def_196 () Bool (= |%{$(in_main#0)<rv>}#2| 0))
(define-fun .def_188 () Int (select .def_20 .def_10))
(define-fun .def_189 () Bool (= .def_187 .def_188))
(define-fun .def_190 () Bool (not .def_189))
(define-fun .def_198 () Bool (and .def_190 .def_196))
(define-fun .def_195 () Bool (= .def_14 |%{$(in_main#0)<rv>}#2|))
(define-fun .def_197 () Bool (and .def_189 .def_195))
(define-fun .def_199 () Bool (or .def_197 .def_198))
(define-fun .def_218 () Bool (and .def_199 .def_217))
(define-fun .def_186 () Bool (not .def_185))
(define-fun .def_219 () Bool (and .def_186 .def_218))
(define-fun .def_228 () Bool (and .def_219 .def_227))
(define-fun .def_231 () Bool (or .def_228 .def_230))
(define-fun .def_234 () Bool (or .def_231 .def_233))
(define-fun .def_170 () Bool (= .def_42 89))
(define-fun .def_179 () Bool (and .def_134 .def_170))
(define-fun .def_79 () Bool (<= .def_8 .def_16))
(define-fun .def_168 () Bool (and .def_79 .def_167))
(define-fun .def_180 () Bool (and .def_168 .def_179))
(define-fun .def_176 () Bool (and .def_170 .def_175))
(define-fun .def_145 () Int (select .def_20 .def_16))
(define-fun .def_81 () Int (select .def_18 .def_16))
(define-fun .def_146 () Bool (= .def_81 .def_145))
(define-fun .def_147 () Int (ite .def_146 1 0))
(define-fun .def_148 () Bool (= .def_147 0))
(define-fun .def_149 () Bool (not .def_148))
(define-fun .def_111 () Int (* (- 1) |!{$(in_main#0)<x>}.next|))
(define-fun .def_112 () Int (+ .def_16 .def_111))
(define-fun .def_113 () Bool (= .def_112 (- 1)))
(define-fun .def_114 () Bool (and .def_109 .def_113))
(define-fun .def_115 () Bool (and .def_100 .def_114))
(define-fun .def_116 () Bool (and .def_102 .def_115))
(define-fun .def_117 () Bool (and .def_104 .def_116))
(define-fun .def_161 () Bool (and .def_117 .def_149))
(define-fun .def_80 () Bool (not .def_79))
(define-fun .def_162 () Bool (and .def_80 .def_161))
(define-fun .def_177 () Bool (and .def_162 .def_176))
(define-fun .def_172 () Bool (= !pc.next 109))
(define-fun .def_173 () Bool (and .def_170 .def_172))
(define-fun .def_152 () Bool (and .def_90 .def_148))
(define-fun .def_153 () Bool (and .def_92 .def_152))
(define-fun .def_154 () Bool (and .def_94 .def_153))
(define-fun .def_155 () Bool (and .def_96 .def_154))
(define-fun .def_156 () Bool (and .def_98 .def_155))
(define-fun .def_157 () Bool (and .def_100 .def_156))
(define-fun .def_158 () Bool (and .def_102 .def_157))
(define-fun .def_159 () Bool (and .def_104 .def_158))
(define-fun .def_160 () Bool (and .def_80 .def_159))
(define-fun .def_174 () Bool (and .def_160 .def_173))
(define-fun .def_178 () Bool (or .def_174 .def_177))
(define-fun .def_181 () Bool (or .def_178 .def_180))
(define-fun .def_138 () Bool (= !pc.next 0))
(define-fun .def_129 () Bool (= .def_42 122))
(define-fun .def_139 () Bool (and .def_129 .def_138))
(define-fun .def_120 () Bool (and .def_79 .def_90))
(define-fun .def_121 () Bool (and .def_92 .def_120))
(define-fun .def_122 () Bool (and .def_94 .def_121))
(define-fun .def_123 () Bool (and .def_96 .def_122))
(define-fun .def_124 () Bool (and .def_98 .def_123))
(define-fun .def_125 () Bool (and .def_100 .def_124))
(define-fun .def_126 () Bool (and .def_102 .def_125))
(define-fun .def_127 () Bool (and .def_104 .def_126))
(define-fun .def_140 () Bool (and .def_127 .def_139))
(define-fun .def_135 () Bool (and .def_129 .def_134))
(define-fun .def_82 () Int (select .def_22 .def_16))
(define-fun .def_83 () Bool (= .def_81 .def_82))
(define-fun .def_84 () Int (ite .def_83 1 0))
(define-fun .def_85 () Bool (= .def_84 0))
(define-fun .def_86 () Bool (not .def_85))
(define-fun .def_118 () Bool (and .def_86 .def_117))
(define-fun .def_119 () Bool (and .def_80 .def_118))
(define-fun .def_136 () Bool (and .def_119 .def_135))
(define-fun .def_131 () Bool (= !pc.next 142))
(define-fun .def_132 () Bool (and .def_129 .def_131))
(define-fun .def_91 () Bool (and .def_85 .def_90))
(define-fun .def_93 () Bool (and .def_91 .def_92))
(define-fun .def_95 () Bool (and .def_93 .def_94))
(define-fun .def_97 () Bool (and .def_95 .def_96))
(define-fun .def_99 () Bool (and .def_97 .def_98))
(define-fun .def_101 () Bool (and .def_99 .def_100))
(define-fun .def_103 () Bool (and .def_101 .def_102))
(define-fun .def_105 () Bool (and .def_103 .def_104))
(define-fun .def_106 () Bool (and .def_80 .def_105))
(define-fun .def_133 () Bool (and .def_106 .def_132))
(define-fun .def_137 () Bool (or .def_133 .def_136))
(define-fun .def_141 () Bool (or .def_137 .def_140))
(define-fun .def_77 () Bool (and .def_45 .def_76))
(define-fun .def_73 () Bool (= |!{$(in_main#0)<c.3>}.next| |%{$(in_main#0)<c.3>}#1|))
(define-fun .def_71 () Bool (= |!{$(in_main#0)<b.2>}.next| |%{$(in_main#0)<b.2>}#1|))
(define-fun .def_69 () Bool (= |!{$(in_main#0)<a.1>}.next| |%{$(in_main#0)<a.1>}#1|))
(define-fun .def_67 () Bool (= |!{$(in_main#0)<x>}.next| |%{$(in_main#0)<x>}#1|))
(define-fun .def_65 () Bool (= |!{$(in_main#0)<rv>}.next| 1))
(define-fun .def_63 () Bool (= |!{$(in_main#0)<j>}.next| 0))
(define-fun .def_61 () Bool (= |!{$(in_main#0)<i>}.next| 0))
(define-fun .def_60 () Bool (= |!{$(in_main#0)<SIZE>}.next| |!{$(in_main#0)<$(in___VERIFIER_nondet_int#0)<h#<__VERIFIER_nondet_int.return>>>}|))
(define-fun .def_62 () Bool (and .def_60 .def_61))
(define-fun .def_64 () Bool (and .def_62 .def_63))
(define-fun .def_66 () Bool (and .def_64 .def_65))
(define-fun .def_68 () Bool (and .def_66 .def_67))
(define-fun .def_70 () Bool (and .def_68 .def_69))
(define-fun .def_72 () Bool (and .def_70 .def_71))
(define-fun .def_74 () Bool (and .def_72 .def_73))
(define-fun .def_78 () Bool (and .def_74 .def_77))
(define-fun .def_142 () Bool (or .def_78 .def_141))
(define-fun .def_182 () Bool (or .def_142 .def_181))
(define-fun .def_235 () Bool (or .def_182 .def_234))
(define-fun .def_264 () Bool (! (or .def_235 .def_263) :trans true))
(define-fun .def_183 () Bool (= .def_42 109))
(define-fun .def_143 () Bool (= .def_42 142))
(define-fun .def_265 () Bool (or .def_143 .def_183))
(define-fun .def_266 () Bool (! (not .def_265) :invar-property 0 :invar-property-name ||))
(assert true)
